NAME: zoz404
TYPE: TSP
DIMENSION: 404
EDGE_WEIGHT_TYPE: EUC_2D
NODE_COORD_SECTION
0 61.0 54.0
1 61.0 54.0
2 61.0 54.0
3 61.0 54.0
4 61.0 54.0
5 61.0 54.0
6 61.0 54.0
7 61.0 54.0
8 61.0 54.0
9 61.0 54.0
10 61.0 54.0
11 61.0 54.0
12 61.0 54.0
13 61.0 54.0
14 61.0 54.0
15 61.0 54.0
16 61.0 54.0
17 61.0 54.0
18 61.0 54.0
19 61.0 54.0
20 61.0 54.0
21 61.0 54.0
22 61.0 54.0
23 61.0 54.0
24 61.0 54.0
25 61.0 54.0
26 61.0 54.0
27 61.0 53.0
28 61.0 53.0
29 61.0 53.0
30 61.0 53.0
31 61.0 53.0
32 61.0 53.0
33 61.0 53.0
34 61.0 53.0
35 61.0 53.0
36 61.0 53.0
37 61.0 53.0
38 61.0 53.0
39 61.0 53.0
40 61.0 53.0
41 61.0 53.0
42 61.0 53.0
43 61.0 53.0
44 61.0 53.0
45 61.0 53.0
46 61.0 53.0
47 61.0 53.0
48 61.0 53.0
49 61.0 53.0
50 61.0 53.0
51 61.0 53.0
52 61.0 53.0
53 61.0 53.0
54 61.0 53.0
55 61.0 53.0
56 61.0 53.0
57 61.0 53.0
58 61.0 53.0
59 61.0 53.0
60 61.0 53.0
61 61.0 53.0
62 61.0 53.0
63 61.0 53.0
64 61.0 53.0
65 61.0 53.0
66 61.0 53.0
67 61.0 53.0
68 61.0 53.0
69 61.0 53.0
70 61.0 53.0
71 61.0 53.0
72 61.0 53.0
73 61.0 53.0
74 61.0 53.0
75 61.0 53.0
76 61.0 53.0
77 61.0 53.0
78 61.0 53.0
79 61.0 53.0
80 61.0 53.0
81 61.0 53.0
82 61.0 53.0
83 61.0 53.0
84 61.0 53.0
85 61.0 53.0
86 61.0 53.0
87 61.0 53.0
88 61.0 53.0
89 61.0 53.0
90 61.0 53.0
91 61.0 53.0
92 61.0 53.0
93 61.0 53.0
94 61.0 53.0
95 61.0 53.0
96 61.0 53.0
97 61.0 53.0
98 61.0 53.0
99 61.0 53.0
100 61.0 53.0
101 61.0 53.0
102 61.0 53.0
103 61.0 53.0
104 61.0 53.0
105 61.0 53.0
106 61.0 53.0
107 61.0 53.0
108 61.0 53.0
109 61.0 53.0
110 61.0 53.0
111 61.0 53.0
112 61.0 53.0
113 61.0 53.0
114 61.0 53.0
115 61.0 53.0
116 61.0 53.0
117 61.0 53.0
118 61.0 53.0
119 61.0 53.0
120 61.0 53.0
121 61.0 53.0
122 61.0 53.0
123 61.0 53.0
124 61.0 53.0
125 61.0 53.0
126 61.0 53.0
127 61.0 53.0
128 61.0 53.0
129 61.0 45.0
130 61.0 45.0
131 61.0 45.0
132 61.0 45.0
133 61.0 45.0
134 61.0 45.0
135 61.0 45.0
136 61.0 45.0
137 61.0 45.0
138 61.0 45.0
139 61.0 45.0
140 61.0 45.0
141 61.0 45.0
142 61.0 45.0
143 61.0 45.0
144 61.0 45.0
145 61.0 45.0
146 61.0 45.0
147 61.0 45.0
148 61.0 45.0
149 61.0 45.0
150 61.0 45.0
151 61.0 45.0
152 61.0 45.0
153 61.0 45.0
154 61.0 45.0
155 61.0 45.0
156 61.0 45.0
157 61.0 45.0
158 61.0 45.0
159 61.0 45.0
160 61.0 45.0
161 61.0 45.0
162 61.0 45.0
163 61.0 45.0
164 61.0 45.0
165 61.0 45.0
166 61.0 45.0
167 61.0 45.0
168 61.0 45.0
169 61.0 45.0
170 61.0 45.0
171 61.0 45.0
172 61.0 45.0
173 61.0 45.0
174 61.0 45.0
175 61.0 45.0
176 61.0 45.0
177 61.0 45.0
178 61.0 45.0
179 61.0 45.0
180 61.0 45.0
181 61.0 45.0
182 61.0 45.0
183 61.0 45.0
184 61.0 45.0
185 61.0 45.0
186 61.0 45.0
187 61.0 45.0
188 61.0 45.0
189 61.0 45.0
190 61.0 45.0
191 61.0 45.0
192 61.0 45.0
193 61.0 45.0
194 61.0 45.0
195 61.0 45.0
196 61.0 45.0
197 61.0 45.0
198 61.0 45.0
199 61.0 45.0
200 61.0 45.0
201 61.0 45.0
202 61.0 45.0
203 61.0 45.0
204 61.0 45.0
205 61.0 45.0
206 61.0 45.0
207 61.0 45.0
208 61.0 45.0
209 61.0 45.0
210 61.0 45.0
211 61.0 45.0
212 61.0 45.0
213 61.0 45.0
214 61.0 45.0
215 61.0 45.0
216 61.0 45.0
217 61.0 45.0
218 61.0 45.0
219 61.0 45.0
220 61.0 45.0
221 61.0 45.0
222 61.0 45.0
223 61.0 45.0
224 61.0 45.0
225 61.0 45.0
226 61.0 45.0
227 61.0 45.0
228 61.0 45.0
229 61.0 45.0
230 61.0 45.0
231 61.0 45.0
232 61.0 45.0
233 61.0 45.0
234 61.0 45.0
235 61.0 45.0
236 61.0 45.0
237 61.0 45.0
238 61.0 45.0
239 61.0 45.0
240 61.0 45.0
241 61.0 45.0
242 61.0 45.0
243 61.0 45.0
244 61.0 45.0
245 61.0 45.0
246 61.0 45.0
247 61.0 45.0
248 61.0 45.0
249 61.0 45.0
250 61.0 45.0
251 61.0 45.0
252 61.0 45.0
253 61.0 45.0
254 61.0 45.0
255 61.0 45.0
256 61.0 45.0
257 61.0 45.0
258 61.0 45.0
259 61.0 45.0
260 61.0 45.0
261 61.0 45.0
262 61.0 45.0
263 61.0 45.0
264 61.0 45.0
265 61.0 45.0
266 61.0 45.0
267 61.0 45.0
268 61.0 45.0
269 61.0 45.0
270 61.0 31.0
271 61.0 31.0
272 61.0 31.0
273 61.0 31.0
274 61.0 31.0
275 61.0 31.0
276 61.0 31.0
277 61.0 31.0
278 61.0 31.0
279 61.0 31.0
280 61.0 31.0
281 61.0 31.0
282 61.0 31.0
283 61.0 31.0
284 61.0 31.0
285 61.0 31.0
286 61.0 31.0
287 61.0 31.0
288 61.0 31.0
289 61.0 31.0
290 61.0 31.0
291 61.0 31.0
292 61.0 31.0
293 61.0 31.0
294 61.0 19.0
295 61.0 19.0
296 61.0 19.0
297 61.0 19.0
298 61.0 19.0
299 61.0 19.0
300 61.0 19.0
301 61.0 19.0
302 61.0 19.0
303 61.0 19.0
304 61.0 19.0
305 61.0 19.0
306 61.0 19.0
307 61.0 19.0
308 61.0 19.0
309 61.0 19.0
310 61.0 19.0
311 61.0 19.0
312 61.0 19.0
313 61.0 19.0
314 61.0 19.0
315 61.0 19.0
316 61.0 19.0
317 61.0 19.0
318 61.0 19.0
319 61.0 19.0
320 61.0 19.0
321 61.0 19.0
322 61.0 19.0
323 61.0 19.0
324 61.0 19.0
325 61.0 19.0
326 61.0 19.0
327 61.0 19.0
328 61.0 19.0
329 61.0 19.0
330 61.0 19.0
331 61.0 19.0
332 61.0 19.0
333 61.0 19.0
334 61.0 19.0
335 61.0 19.0
336 61.0 19.0
337 61.0 19.0
338 61.0 19.0
339 61.0 19.0
340 61.0 19.0
341 61.0 19.0
342 61.0 19.0
343 61.0 19.0
344 61.0 19.0
345 61.0 19.0
346 61.0 19.0
347 61.0 19.0
348 61.0 19.0
349 61.0 19.0
350 61.0 19.0
351 61.0 19.0
352 61.0 19.0
353 61.0 19.0
354 61.0 19.0
355 61.0 19.0
356 61.0 19.0
357 61.0 19.0
358 61.0 19.0
359 61.0 19.0
360 61.0 19.0
361 61.0 19.0
362 61.0 19.0
363 61.0 19.0
364 61.0 19.0
365 61.0 12.0
366 61.0 12.0
367 61.0 12.0
368 61.0 12.0
369 61.0 12.0
370 61.0 12.0
371 61.0 12.0
372 61.0 12.0
373 61.0 12.0
374 61.0 12.0
375 61.0 12.0
376 61.0 12.0
377 61.0 12.0
378 61.0 12.0
379 61.0 12.0
380 61.0 12.0
381 61.0 12.0
382 61.0 12.0
383 61.0 12.0
384 61.0 12.0
385 61.0 12.0
386 61.0 12.0
387 61.0 12.0
388 61.0 12.0
389 61.0 12.0
390 61.0 12.0
391 61.0 12.0
392 61.0 12.0
393 61.0 12.0
394 61.0 12.0
395 61.0 12.0
396 61.0 12.0
397 61.0 12.0
398 61.0 12.0
399 61.0 12.0
400 61.0 12.0
401 61.0 12.0
402 61.0 12.0
403 61.0 12.0
